cost: 1121.48
Route 1:           0   17   49    2   42    0
Route 2:           0   20   10   23   43   26    0
Route 3:           0   28   25   11   32    6   29   16    0
Route 4:           0   31    1   46    9   36    0
Route 5:           0   40    8   24   13   15    0
Route 6:           0   45   27   22   37   30   44    0
Route 7:           0   47   14   12    4    3   38    0
Route 8:           0   48   41    7   19   34    0
Route 9:           0   50   39   35   21   33   18    5    0
